; outcome: timeout
; expected: sat

(set-option :produce-models true)
(set-option :interactive-mode true)
(set-logic ALL_SUPPORTED)
(declare-datatypes () ((nat_ (Suc_ (_select_Suc__0 nat_)) (zero_ ))))
(declare-sort a_ 0)
(declare-fun __nun_card_witness_0_ () a_)
(declare-datatypes ()
   ((tree_
       (InnerNode_ (_select_InnerNode__0 nat_) 
          (_select_InnerNode__1 tree_) (_select_InnerNode__2 tree_)) 
       (Leaf_ (_select_Leaf__0 nat_) (_select_Leaf__1 a_)))))
(declare-fun t_ () tree_)
(declare-sort G_lesseq_pos_ 0)
(declare-fun __nun_card_witness_1_ () G_lesseq_pos_)
(declare-fun lesseq_+ (nat_ nat_) Bool)
(declare-fun proj_G_lesseq_pos_0_ (G_lesseq_pos_) nat_)
(declare-fun proj_G_lesseq_pos_1_ (G_lesseq_pos_) nat_)
(assert
 (forall ((a/106 G_lesseq_pos_))
    (=>
     (lesseq_+ (proj_G_lesseq_pos_0_ a/106) (proj_G_lesseq_pos_1_ a/106))
     (=> (is-Suc_ (proj_G_lesseq_pos_0_ a/106))
      (and (is-Suc_ (proj_G_lesseq_pos_1_ a/106)) 
       (lesseq_+ (_select_Suc__0 (proj_G_lesseq_pos_0_ a/106)) 
        (_select_Suc__0 (proj_G_lesseq_pos_1_ a/106))) 
       (exists ((a/114 G_lesseq_pos_))
          (and
           (= (_select_Suc__0 (proj_G_lesseq_pos_1_ a/106))
            (proj_G_lesseq_pos_1_ a/114)) 
           (= (_select_Suc__0 (proj_G_lesseq_pos_0_ a/106))
            (proj_G_lesseq_pos_0_ a/114)))))))))
(declare-sort G_lesseq_neg_ 0)
(declare-fun __nun_card_witness_2_ () G_lesseq_neg_)
(declare-fun lesseq_- (nat_ nat_) Bool)
(declare-fun proj_G_lesseq_neg_0_ (G_lesseq_neg_) nat_)
(declare-fun proj_G_lesseq_neg_1_ (G_lesseq_neg_) nat_)
(assert
 (forall ((a/115 G_lesseq_neg_))
    (=>
     (=> (is-Suc_ (proj_G_lesseq_neg_0_ a/115))
      (and (is-Suc_ (proj_G_lesseq_neg_1_ a/115)) 
       (=>
        (exists ((a/123 G_lesseq_neg_))
           (and
            (= (_select_Suc__0 (proj_G_lesseq_neg_1_ a/115))
             (proj_G_lesseq_neg_1_ a/123)) 
            (= (_select_Suc__0 (proj_G_lesseq_neg_0_ a/115))
             (proj_G_lesseq_neg_0_ a/123))))
        (lesseq_- (_select_Suc__0 (proj_G_lesseq_neg_0_ a/115)) 
         (_select_Suc__0 (proj_G_lesseq_neg_1_ a/115))))))
     (lesseq_- (proj_G_lesseq_neg_0_ a/115) (proj_G_lesseq_neg_1_ a/115)))))
(declare-sort G_max_ 0)
(declare-fun __nun_card_witness_3_ () G_max_)
(declare-fun max_ (nat_ nat_) nat_)
(declare-fun proj_G_max_0_ (G_max_) nat_)
(declare-fun proj_G_max_1_ (G_max_) nat_)
(assert
 (forall ((a/124 G_max_))
    (and
     (= (max_ (proj_G_max_0_ a/124) (proj_G_max_1_ a/124))
      (ite (lesseq_+ (proj_G_max_0_ a/124) (proj_G_max_1_ a/124))
        (proj_G_max_1_ a/124) (proj_G_max_0_ a/124))) 
     (exists ((a/127 G_lesseq_pos_))
        (and (= (proj_G_max_1_ a/124) (proj_G_lesseq_pos_1_ a/127)) 
         (= (proj_G_max_0_ a/124) (proj_G_lesseq_pos_0_ a/127)))) 
     (= (lesseq_+ (proj_G_max_0_ a/124) (proj_G_max_1_ a/124))
      (lesseq_- (proj_G_max_0_ a/124) (proj_G_max_1_ a/124))) 
     (exists ((a/126 G_lesseq_pos_))
        (and (= (proj_G_max_1_ a/124) (proj_G_lesseq_pos_1_ a/126)) 
         (= (proj_G_max_0_ a/124) (proj_G_lesseq_pos_0_ a/126)))) 
     (exists ((a/125 G_lesseq_neg_))
        (and (= (proj_G_max_1_ a/124) (proj_G_lesseq_neg_1_ a/125)) 
         (= (proj_G_max_0_ a/124) (proj_G_lesseq_neg_0_ a/125)))))))
(declare-sort G_height_ 0)
(declare-fun __nun_card_witness_4_ () G_height_)
(declare-fun height_ (tree_) nat_)
(declare-fun proj_G_height_0_ (G_height_) tree_)
(assert
 (forall ((a/128 G_height_))
    (and
     (= (height_ (proj_G_height_0_ a/128))
      (ite (is-InnerNode_ (proj_G_height_0_ a/128))
        (Suc_
         (max_ (height_ (_select_InnerNode__1 (proj_G_height_0_ a/128))) 
          (height_ (_select_InnerNode__2 (proj_G_height_0_ a/128)))))
        zero_)) 
     (=> (is-InnerNode_ (proj_G_height_0_ a/128))
      (and
       (exists ((a/145 G_height_))
          (= (_select_InnerNode__1 (proj_G_height_0_ a/128))
           (proj_G_height_0_ a/145))) 
       (exists ((a/146 G_height_))
          (= (_select_InnerNode__2 (proj_G_height_0_ a/128))
           (proj_G_height_0_ a/146))) 
       (exists ((a/138 G_max_))
          (and
           (= (height_ (_select_InnerNode__2 (proj_G_height_0_ a/128)))
            (proj_G_max_1_ a/138)) 
           (exists ((a/141 G_height_))
              (= (_select_InnerNode__2 (proj_G_height_0_ a/128))
               (proj_G_height_0_ a/141))) 
           (= (height_ (_select_InnerNode__1 (proj_G_height_0_ a/128)))
            (proj_G_max_0_ a/138)) 
           (exists ((a/142 G_height_))
              (= (_select_InnerNode__1 (proj_G_height_0_ a/128))
               (proj_G_height_0_ a/142))))))))))
(assert
 (and (= (height_ t_) (Suc_ (Suc_ (Suc_ (Suc_ zero_))))) 
  (exists ((a/147 G_height_)) (= t_ (proj_G_height_0_ a/147)))))
(check-sat)
